c description: Random 3-CNF over 11 variables and 33 clauses
p cnf 11 33
2 3 6 0
4 5 -11 0
1 4 10 0
4 8 11 0
2 3 -6 0
-1 -5 8 0
-3 4 9 0
2 -5 -8 0
4 -6 -8 0
-2 5 -6 0
-1 8 11 0
1 -5 8 0
-4 -8 -11 0
-1 2 -7 0
-6 -8 9 0
2 -3 4 0
-2 -4 9 0
2 6 10 0
3 5 -8 0
2 7 -10 0
1 -3 8 0
3 -5 6 0
-4 -5 -11 0
-1 -9 11 0
4 9 11 0
-2 -3 9 0
-3 -6 10 0
2 -5 6 0
-1 3 4 0
2 -3 -4 0
-2 3 -8 0
-3 -7 8 0
-2 7 11 0